(set-info :source |printed by MathSAT|)
(declare-fun main@%tmp8.i_0_5 () Int)
(declare-fun .y.16 () Int)
(declare-fun .y.11 () Int)
(declare-fun .y.17 () Int)
(declare-fun .y.12 () Int)
(declare-fun .y.18 () Int)
(declare-fun main@%shadow.mem.0_0_5 () (Array Int Int))
(declare-fun .y.19 () (Array Int Int))
(declare-fun main@%largest.0.i_0_3 () Int)
(declare-fun .y.20 () Int)
(declare-fun main@%x.0.i_0_1 () Int)
(declare-fun .y.21 () Int)
(declare-fun main@%tmp2.i_0_5 () Int)
(declare-fun .y.22 () Int)
(declare-fun .loc.13 () Bool)
(declare-fun .loc.23 () Bool)
(declare-fun .loc.14 () Bool)
(declare-fun .loc.24 () Bool)
(declare-fun .loc.15 () Bool)
(declare-fun .loc.25 () Bool)
(declare-fun main@%tmp37.i_0 () Int)
(declare-fun main@%tmp32.i_0 () Int)
(declare-fun main@bb35.i_0 () Bool)
(declare-fun main@bb27.i_0 () Bool)
(declare-fun main@bb23.i_0_0 () Bool)
(declare-fun main@%tmp34.i_0 () Bool)
(declare-fun |tuple(main@bb27.i_0, main@bb40.i_0)| () Bool)
(declare-fun main@%largest.1.i_0 () Int)
(declare-fun main@%tmp38.i_0 () Int)
(declare-fun main@%largest.1.i_1 () Int)
(declare-fun main@%tmp52.i_0_0 () Int)
(define-fun .def_8 () Int (! main@%tmp8.i_0_5 :next |.y.16|))
(define-fun .def_10 () Int (! .y.11 :next |.y.17|))
(define-fun .def_12 () Int (! .y.12 :next |.y.18|))
(define-fun .def_14 () (Array Int Int) (! main@%shadow.mem.0_0_5 :next |.y.19|))
(define-fun .def_16 () Int (! main@%largest.0.i_0_3 :next |.y.20|))
(define-fun .def_18 () Int (! main@%x.0.i_0_1 :next |.y.21|))
(define-fun .def_20 () Int (! main@%tmp2.i_0_5 :next |.y.22|))
(define-fun .def_22 () Bool (! .loc.13 :next |.loc.23|))
(define-fun .def_24 () Bool (! .loc.14 :next |.loc.24|))
(define-fun .def_26 () Bool (! .loc.15 :next |.loc.25|))
(define-fun .def_44 () Int (! main@%tmp37.i_0 :next |.xtv.1|))
(define-fun .def_45 () Int (! main@%tmp32.i_0 :next |.xtv.2|))
(define-fun .def_85 () Bool (! main@bb35.i_0 :next |.xtv.3|))
(define-fun .def_87 () Bool (! main@bb27.i_0 :next |.xtv.4|))
(define-fun .def_91 () Bool (! main@bb23.i_0_0 :next |.xtv.5|))
(define-fun .def_96 () Bool (! main@%tmp34.i_0 :next |.xtv.6|))
(define-fun .def_99 () Bool (! |tuple(main@bb27.i_0, main@bb40.i_0)| :next |.xtv.7|))
(define-fun .def_110 () Int (! main@%largest.1.i_0 :next |.xtv.8|))
(define-fun .def_111 () Int (! main@%tmp38.i_0 :next |.xtv.9|))
(define-fun .def_130 () Int (! main@%largest.1.i_1 :next |.xtv.10|))
(define-fun .def_142 () Int (! main@%tmp52.i_0_0 :next |.xtv.11|))
(define-fun .def_73 () Bool (not .def_22))
(define-fun .def_37 () Bool (not .def_24))
(define-fun .def_257 () Bool (and .def_37 .def_73))
(define-fun .def_255 () Bool (not .def_26))
(define-fun .def_258 () Bool (! (and .def_255 .def_257) :init true))
(define-fun .def_158 () Int (select .def_14 .def_142))
(define-fun .def_207 () Bool (<= .def_158 .def_16))
(define-fun .def_242 () Bool (not .def_207))
(define-fun .def_213 () Bool (<= .def_20 .def_18))
(define-fun .def_214 () Bool (not .def_213))
(define-fun .def_143 () Int (* (- 1) .def_142))
(define-fun .def_210 () Int (+ .def_18 .def_143))
(define-fun .def_211 () Int (+ .def_8 .def_210))
(define-fun .def_212 () Bool (= .def_211 0))
(define-fun .def_215 () Bool (and .def_212 .def_214))
(define-fun .def_150 () Bool (<= .def_142 0))
(define-fun .def_151 () Bool (not .def_150))
(define-fun .def_149 () Bool (<= .def_8 0))
(define-fun .def_152 () Bool (or .def_149 .def_151))
(define-fun .def_216 () Bool (and .def_152 .def_215))
(define-fun .def_155 () Bool (not .def_149))
(define-fun .def_217 () Bool (and .def_155 .def_216))
(define-fun .def_243 () Bool (and .def_217 .def_242))
(define-fun .def_244 () Bool (and .def_22 .def_243))
(define-fun .def_245 () Bool (and .loc.25 .def_244))
(define-fun .def_117 () Bool (not .loc.23))
(define-fun .def_246 () Bool (and .def_117 .def_245))
(define-fun .def_29 () Bool (not .loc.24))
(define-fun .def_247 () Bool (and .def_29 .def_246))
(define-fun .def_239 () Bool (= .y.20 .def_18))
(define-fun .def_234 () Bool (= .y.21 0))
(define-fun .def_231 () Bool (and .loc.23 .loc.24))
(define-fun .def_31 () Bool (not .loc.25))
(define-fun .def_232 () Bool (and .def_31 .def_231))
(define-fun .def_233 () Bool (and .def_73 .def_232))
(define-fun .def_235 () Bool (and .def_233 .def_234))
(define-fun .def_137 () Bool (<= .def_20 .def_16))
(define-fun .def_236 () Bool (and .def_137 .def_235))
(define-fun .def_33 () Bool (= .def_8 .y.16))
(define-fun .def_237 () Bool (and .def_33 .def_236))
(define-fun .def_122 () Bool (= .def_14 .y.19))
(define-fun .def_238 () Bool (and .def_122 .def_237))
(define-fun .def_240 () Bool (and .def_238 .def_239))
(define-fun .def_124 () Bool (= .def_20 .y.22))
(define-fun .def_241 () Bool (and .def_124 .def_240))
(define-fun .def_248 () Bool (or .def_241 .def_247))
(define-fun .def_226 () Int (* (- 1) .y.21))
(define-fun .def_227 () Int (+ .def_18 .def_226))
(define-fun .def_228 () Bool (= .def_227 (- 1)))
(define-fun .def_218 () Bool (and .def_207 .def_217))
(define-fun .def_219 () Bool (and .def_22 .def_218))
(define-fun .def_220 () Bool (and .loc.23 .def_219))
(define-fun .def_221 () Bool (and .loc.24 .def_220))
(define-fun .def_222 () Bool (and .def_31 .def_221))
(define-fun .def_223 () Bool (and .def_33 .def_222))
(define-fun .def_224 () Bool (and .def_122 .def_223))
(define-fun .def_225 () Bool (and .def_124 .def_224))
(define-fun .def_229 () Bool (and .def_225 .def_228))
(define-fun .def_35 () Bool (= .def_16 .y.20))
(define-fun .def_230 () Bool (and .def_35 .def_229))
(define-fun .def_249 () Bool (or .def_230 .def_248))
(define-fun .def_250 () Bool (and .def_24 .def_249))
(define-fun .def_205 () Bool (= .def_16 .y.22))
(define-fun .def_203 () Bool (= .y.16 .def_10))
(define-fun .def_199 () Int (select .def_14 .def_10))
(define-fun .def_200 () Bool (= .y.21 .def_199))
(define-fun .def_197 () Bool (= .y.20 1))
(define-fun .def_191 () Bool (and .def_22 .loc.24))
(define-fun .def_192 () Bool (and .def_117 .def_191))
(define-fun .def_193 () Bool (and .def_31 .def_192))
(define-fun .def_194 () Bool (and .def_122 .def_193))
(define-fun .def_195 () Bool (and .def_37 .def_194))
(define-fun .def_198 () Bool (and .def_195 .def_197))
(define-fun .def_201 () Bool (and .def_198 .def_200))
(define-fun .def_59 () Bool (<= .def_16 .def_12))
(define-fun .def_202 () Bool (and .def_59 .def_201))
(define-fun .def_204 () Bool (and .def_202 .def_203))
(define-fun .def_206 () Bool (and .def_204 .def_205))
(define-fun .def_251 () Bool (or .def_206 .def_250))
(define-fun .def_188 () Bool (= .def_18 .def_130))
(define-fun .def_104 () Bool (and .def_87 .def_99))
(define-fun .def_105 () Bool (not .def_104))
(define-fun .def_189 () Bool (or .def_105 .def_188))
(define-fun .def_184 () Int (select .def_14 .def_44))
(define-fun .def_185 () Bool (= .def_111 .def_184))
(define-fun .def_86 () Bool (not .def_85))
(define-fun .def_186 () Bool (or .def_86 .def_185))
(define-fun .def_182 () Bool (or .def_86 .def_155))
(define-fun .def_177 () Bool (<= .def_44 0))
(define-fun .def_178 () Bool (not .def_177))
(define-fun .def_179 () Bool (or .def_149 .def_178))
(define-fun .def_180 () Bool (or .def_86 .def_179))
(define-fun .def_171 () Int (* (- 1) .def_44))
(define-fun .def_172 () Int (+ .def_16 .def_171))
(define-fun .def_173 () Int (+ .def_8 .def_172))
(define-fun .def_174 () Bool (= .def_173 0))
(define-fun .def_175 () Bool (or .def_86 .def_174))
(define-fun .def_162 () Bool (<= .def_45 .def_18))
(define-fun .def_163 () Bool (not .def_162))
(define-fun .def_164 () Bool (= .def_96 .def_163))
(define-fun .def_90 () Bool (not .def_87))
(define-fun .def_165 () Bool (or .def_90 .def_164))
(define-fun .def_159 () Bool (= .def_45 .def_158))
(define-fun .def_160 () Bool (or .def_90 .def_159))
(define-fun .def_156 () Bool (or .def_90 .def_155))
(define-fun .def_153 () Bool (or .def_90 .def_152))
(define-fun .def_144 () Int (+ .def_16 .def_143))
(define-fun .def_145 () Int (+ .def_8 .def_144))
(define-fun .def_146 () Bool (= .def_145 0))
(define-fun .def_147 () Bool (or .def_90 .def_146))
(define-fun .def_92 () Bool (and .def_87 .def_91))
(define-fun .def_139 () Bool (not .def_92))
(define-fun .def_138 () Bool (not .def_137))
(define-fun .def_140 () Bool (or .def_138 .def_139))
(define-fun .def_134 () Bool (= .y.21 .def_110))
(define-fun .def_135 () Bool (or .def_86 .def_134))
(define-fun .def_131 () Bool (= .y.21 .def_130))
(define-fun .def_132 () Bool (or .def_105 .def_131))
(define-fun .def_126 () Int (* (- 1) .y.20))
(define-fun .def_127 () Int (+ .def_16 .def_126))
(define-fun .def_128 () Bool (= .def_127 (- 1)))
(define-fun .def_112 () Bool (= .def_110 .def_111))
(define-fun .def_113 () Bool (or .def_86 .def_112))
(define-fun .def_108 () Bool (or .def_85 .def_104))
(define-fun .def_103 () Bool (not .def_96))
(define-fun .def_106 () Bool (or .def_103 .def_105))
(define-fun .def_100 () Bool (not .def_99))
(define-fun .def_101 () Bool (or .def_87 .def_100))
(define-fun .def_88 () Bool (and .def_85 .def_87))
(define-fun .def_95 () Bool (not .def_88))
(define-fun .def_97 () Bool (or .def_95 .def_96))
(define-fun .def_93 () Bool (or .def_90 .def_92))
(define-fun .def_89 () Bool (or .def_86 .def_88))
(define-fun .def_94 () Bool (and .def_89 .def_93))
(define-fun .def_98 () Bool (and .def_94 .def_97))
(define-fun .def_102 () Bool (and .def_98 .def_101))
(define-fun .def_107 () Bool (and .def_102 .def_106))
(define-fun .def_109 () Bool (and .def_107 .def_108))
(define-fun .def_114 () Bool (and .def_109 .def_113))
(define-fun .def_115 () Bool (and .def_24 .def_114))
(define-fun .def_116 () Bool (and .loc.24 .def_115))
(define-fun .def_118 () Bool (and .def_116 .def_117))
(define-fun .def_119 () Bool (and .def_31 .def_118))
(define-fun .def_120 () Bool (and .def_73 .def_119))
(define-fun .def_121 () Bool (and .def_33 .def_120))
(define-fun .def_123 () Bool (and .def_121 .def_122))
(define-fun .def_125 () Bool (and .def_123 .def_124))
(define-fun .def_129 () Bool (and .def_125 .def_128))
(define-fun .def_133 () Bool (and .def_129 .def_132))
(define-fun .def_136 () Bool (and .def_133 .def_135))
(define-fun .def_141 () Bool (and .def_136 .def_140))
(define-fun .def_148 () Bool (and .def_141 .def_147))
(define-fun .def_154 () Bool (and .def_148 .def_153))
(define-fun .def_157 () Bool (and .def_154 .def_156))
(define-fun .def_161 () Bool (and .def_157 .def_160))
(define-fun .def_166 () Bool (and .def_161 .def_165))
(define-fun .def_176 () Bool (and .def_166 .def_175))
(define-fun .def_181 () Bool (and .def_176 .def_180))
(define-fun .def_183 () Bool (and .def_181 .def_182))
(define-fun .def_187 () Bool (and .def_183 .def_186))
(define-fun .def_190 () Bool (and .def_187 .def_189))
(define-fun .def_252 () Bool (or .def_190 .def_251))
(define-fun .def_82 () Bool (<= .y.20 0))
(define-fun .def_83 () Bool (not .def_82))
(define-fun .def_79 () Bool (<= .y.17 0))
(define-fun .def_80 () Bool (not .def_79))
(define-fun .def_77 () Bool (= .y.18 0))
(define-fun .def_71 () Bool (and .loc.23 .def_29))
(define-fun .def_72 () Bool (and .def_31 .def_71))
(define-fun .def_74 () Bool (and .def_72 .def_73))
(define-fun .def_75 () Bool (and .def_33 .def_74))
(define-fun .def_76 () Bool (and .def_37 .def_75))
(define-fun .def_78 () Bool (and .def_76 .def_77))
(define-fun .def_81 () Bool (and .def_78 .def_80))
(define-fun .def_84 () Bool (and .def_81 .def_83))
(define-fun .def_253 () Bool (or .def_84 .def_252))
(define-fun .def_69 () Bool (= .def_10 .y.17))
(define-fun .def_64 () Bool (<= .def_10 0))
(define-fun .def_67 () Bool (not .def_64))
(define-fun .def_62 () Bool (<= .def_45 0))
(define-fun .def_63 () Bool (not .def_62))
(define-fun .def_65 () Bool (or .def_63 .def_64))
(define-fun .def_60 () Bool (not .def_59))
(define-fun .def_54 () Int (* (- 1) .def_45))
(define-fun .def_55 () Int (+ .def_12 .def_54))
(define-fun .def_56 () Int (+ .def_10 .def_55))
(define-fun .def_57 () Bool (= .def_56 0))
(define-fun .def_46 () (Array Int Int) (store .def_14 .def_45 .def_44))
(define-fun .def_47 () Bool (= .y.19 .def_46))
(define-fun .def_40 () Int (* (- 1) .y.18))
(define-fun .def_41 () Int (+ .def_12 .def_40))
(define-fun .def_42 () Bool (= .def_41 (- 1)))
(define-fun .def_28 () Bool (and .def_22 .loc.23))
(define-fun .def_30 () Bool (and .def_28 .def_29))
(define-fun .def_32 () Bool (and .def_30 .def_31))
(define-fun .def_34 () Bool (and .def_32 .def_33))
(define-fun .def_36 () Bool (and .def_34 .def_35))
(define-fun .def_38 () Bool (and .def_36 .def_37))
(define-fun .def_43 () Bool (and .def_38 .def_42))
(define-fun .def_48 () Bool (and .def_43 .def_47))
(define-fun .def_58 () Bool (and .def_48 .def_57))
(define-fun .def_61 () Bool (and .def_58 .def_60))
(define-fun .def_66 () Bool (and .def_61 .def_65))
(define-fun .def_68 () Bool (and .def_66 .def_67))
(define-fun .def_70 () Bool (and .def_68 .def_69))
(define-fun .def_254 () Bool (or .def_70 .def_253))
(define-fun .def_256 () Bool (! (and .def_254 .def_255) :trans true))
(define-fun .def_259 () Bool (and .def_26 .def_257))
(define-fun .def_260 () Bool (! (not .def_259) :invar-property 0))
(assert true)
